
Gurobi 7.5.2 (linux64) logging started Sat Jun 23 17:59:32 2018

Changed value of parameter LogFile to result/ilp/simNo_8-n_100-m_40-s_4-minVAF_0.05-cov_2000-k_1-fn_0.10-fp_0.0001-na_0.15.ILP.gurobiSolverLog
   Prev: gurobi.log  Default: 
Changed value of parameter TimeLimit to 86400.0
   Prev: 1e+100  Min: 0.0  Max: 1e+100  Default: 1e+100
Optimize a model with 1265601 rows, 330440 columns and 3489120 nonzeros
Variable types: 0 continuous, 330440 integer (330440 binary)
Coefficient statistics:
  Matrix range     [2e-03, 3e+00]
  Objective range  [4e-01, 9e+00]
  Bounds range     [1e+00, 1e+00]
  RHS range        [2e-01, 2e+00]
Found heuristic solution: objective -14587.60270
Presolve removed 338991 rows and 214963 columns (presolve time = 8s) ...
Presolve removed 338991 rows and 214963 columns (presolve time = 10s) ...
Presolve removed 339840 rows and 214963 columns (presolve time = 15s) ...
Presolve removed 340482 rows and 214963 columns (presolve time = 20s) ...
Presolve removed 340482 rows and 214963 columns (presolve time = 25s) ...
Presolve removed 340482 rows and 214963 columns (presolve time = 31s) ...
Presolve removed 340482 rows and 214963 columns (presolve time = 35s) ...
Presolve removed 340482 rows and 214963 columns (presolve time = 40s) ...
Presolve removed 340482 rows and 214963 columns (presolve time = 45s) ...
Presolve removed 340482 rows and 214963 columns (presolve time = 51s) ...
Presolve removed 340482 rows and 214963 columns
Presolve time: 53.44s
Presolved: 925119 rows, 115477 columns, 2567655 nonzeros
Variable types: 0 continuous, 115477 integer (115477 binary)
Presolve removed 0 rows and 0 columns (presolve time = 5s) ...
Presolved: 115477 rows, 1040596 columns, 2683132 nonzeros

Presolve removed 115477 rows and 1040596 columns

Root simplex log...

Iteration    Objective       Primal Inf.    Dual Inf.      Time
       0    8.7560605e+00   0.000000e+00   9.840800e+04     67s
   10899   -1.8868602e+02   0.000000e+00   1.106770e+05     70s
   15018   -2.2310496e+02   0.000000e+00   0.000000e+00     74s
   15018   -2.2310496e+02   0.000000e+00   0.000000e+00     76s

Root relaxation: objective -2.231050e+02, 15018 iterations, 19.23 seconds
Total elapsed time = 118.34s
Total elapsed time = 135.71s
Total elapsed time = 158.42s
Total elapsed time = 178.07s

    Nodes    |    Current Node    |     Objective Bounds      |     Work
 Expl Unexpl |  Obj  Depth IntInf | Incumbent    BestBd   Gap | It/Node Time

     0     0 -223.10496    0  848 -14587.603 -223.10496  98.5%     -  189s
H    0     0                    -275.6931694 -223.10496  19.1%     -  208s
     0     0 -228.18213    0  823 -275.69317 -228.18213  17.2%     -  231s
     0     0 -228.18213    0  821 -275.69317 -228.18213  17.2%     -  255s
     0     0 -233.59777    0  817 -275.69317 -233.59777  15.3%     -  278s
     0     0 -233.64713    0  815 -275.69317 -233.64713  15.3%     -  297s
     0     0 -236.30559    0  865 -275.69317 -236.30559  14.3%     -  320s
     0     0 -236.30559    0  858 -275.69317 -236.30559  14.3%     -  340s
     0     0 -237.32103    0  737 -275.69317 -237.32103  13.9%     -  359s
     0     0 -237.75621    0  746 -275.69317 -237.75621  13.8%     -  378s
     0     0 -237.93029    0  748 -275.69317 -237.93029  13.7%     -  390s
     0     0 -237.93029    0  756 -275.69317 -237.93029  13.7%     -  399s
     0     0 -241.38276    0  814 -275.69317 -241.38276  12.4%     -  427s
H    0     0                    -272.0600917 -241.38276  11.3%     -  435s
     0     0 -241.38276    0  800 -272.06009 -241.38276  11.3%     -  444s
     0     0 -242.90591    0  772 -272.06009 -242.90591  10.7%     -  465s
     0     0 -242.90591    0  725 -272.06009 -242.90591  10.7%     -  483s
     0     0 -245.09086    0  919 -272.06009 -245.09086  9.91%     -  508s
H    0     0                    -267.9983580 -245.09086  8.55%     -  515s
     0     0 -245.17548    0  930 -267.99836 -245.17548  8.52%     -  525s
     0     0 -245.17548    0  930 -267.99836 -245.17548  8.52%     -  535s
     0     0 -245.65920    0  927 -267.99836 -245.65920  8.34%     -  554s
     0     0 -246.06538    0  937 -267.99836 -246.06538  8.18%     -  575s
     0     0 -246.06538    0  937 -267.99836 -246.06538  8.18%     -  584s
     0     0 -248.15232    0  809 -267.99836 -248.15232  7.41%     -  606s
     0     0 -248.47198    0  925 -267.99836 -248.47198  7.29%     -  623s
     0     0 -248.51711    0  899 -267.99836 -248.51711  7.27%     -  635s
     0     0 -248.57879    0  882 -267.99836 -248.57879  7.25%     -  647s
     0     0 -250.45475    0  883 -267.99836 -250.45475  6.55%     -  675s
     0     0 -250.65503    0  915 -267.99836 -250.65503  6.47%     -  696s
     0     0 -250.66244    0  946 -267.99836 -250.66244  6.47%     -  706s
     0     0 -251.54272    0  799 -267.99836 -251.54272  6.14%     -  728s
     0     0 -251.67623    0  794 -267.99836 -251.67623  6.09%     -  748s
     0     0 -251.67623    0  777 -267.99836 -251.67623  6.09%     -  756s
     0     0 -252.42937    0  880 -267.99836 -252.42937  5.81%     -  781s
     0     0 -252.55062    0  883 -267.99836 -252.55062  5.76%     -  800s
     0     0 -252.55636    0  885 -267.99836 -252.55636  5.76%     -  809s
     0     0 -252.55636    0  885 -267.99836 -252.55636  5.76%     -  819s
     0     0 -252.95080    0  881 -267.99836 -252.95080  5.61%     -  841s
     0     0 -253.36862    0  808 -267.99836 -253.36862  5.46%     -  861s
     0     0 -253.36862    0  886 -267.99836 -253.36862  5.46%     -  872s
     0     0 -254.74701    0  912 -267.99836 -254.74701  4.94%     -  895s
     0     0 -255.41641    0  866 -267.99836 -255.41641  4.69%     -  916s
     0     0 -255.61950    0  886 -267.99836 -255.61950  4.62%     -  927s
     0     0 -255.61950    0  885 -267.99836 -255.61950  4.62%     -  936s
     0     0 -255.61950    0  893 -267.99836 -255.61950  4.62%     -  952s
     0     0 -255.67027    0  896 -267.99836 -255.67027  4.60%     -  967s
     0     0 -255.70412    0  896 -267.99836 -255.70412  4.59%     -  975s
     0     0 -255.70412    0  897 -267.99836 -255.70412  4.59%     -  983s
     0     0 -256.04260    0  893 -267.99836 -256.04260  4.46%     - 1002s
     0     0 -256.41680    0  892 -267.99836 -256.41680  4.32%     - 1021s
     0     0 -256.55031    0  892 -267.99836 -256.55031  4.27%     - 1032s
     0     0 -256.55031    0  897 -267.99836 -256.55031  4.27%     - 1041s
     0     0 -257.00162    0  906 -267.99836 -257.00162  4.10%     - 1063s
     0     0 -257.31738    0  942 -267.99836 -257.31738  3.99%     - 1088s
     0     0 -257.48751    0  907 -267.99836 -257.48751  3.92%     - 1098s
     0     0 -257.60806    0  914 -267.99836 -257.60806  3.88%     - 1110s
     0     0 -257.60806    0  920 -267.99836 -257.60806  3.88%     - 1120s
     0     0 -257.60806    0  900 -267.99836 -257.60806  3.88%     - 1141s
     0     0 -257.97192    0  906 -267.99836 -257.97192  3.74%     - 1159s
     0     0 -257.97192    0  909 -267.99836 -257.97192  3.74%     - 1169s
     0     0 -258.00093    0  916 -267.99836 -258.00093  3.73%     - 1188s
     0     0 -258.14599    0  911 -267.99836 -258.14599  3.68%     - 1204s
     0     0 -258.14599    0  915 -267.99836 -258.14599  3.68%     - 1214s
     0     0 -258.53524    0  906 -267.99836 -258.53524  3.53%     - 1235s
     0     0 -258.53524    0  908 -267.99836 -258.53524  3.53%     - 1253s
     0     0 -258.68756    0  905 -267.99836 -258.68756  3.47%     - 1275s
     0     0 -258.78910    0  911 -267.99836 -258.78910  3.44%     - 1295s
     0     0 -258.89065    0  907 -267.99836 -258.89065  3.40%     - 1307s
     0     0 -258.90999    0  923 -267.99836 -258.90999  3.39%     - 1316s
     0     0 -258.90999    0  919 -267.99836 -258.90999  3.39%     - 1326s
     0     0 -258.90999    0  910 -267.99836 -258.90999  3.39%     - 1343s
     0     0 -259.31131    0  948 -267.99836 -259.31131  3.24%     - 1362s
     0     0 -259.39984    0  930 -267.99836 -259.39984  3.21%     - 1371s
     0     0 -259.39984    0  932 -267.99836 -259.39984  3.21%     - 1380s
     0     0 -259.39984    0  928 -267.99836 -259.39984  3.21%     - 1396s
     0     0 -259.58694    0  908 -267.99836 -259.58694  3.14%     - 1415s
     0     0 -259.58694    0  909 -267.99836 -259.58694  3.14%     - 1423s
     0     0 -259.58694    0  915 -267.99836 -259.58694  3.14%     - 1435s
     0     0 -259.63530    0  917 -267.99836 -259.63530  3.12%     - 1456s
     0     0 -259.74812    0  908 -267.99836 -259.74812  3.08%     - 1471s
     0     0 -259.97378    0  894 -267.99836 -259.97378  2.99%     - 1482s
     0     0 -259.97378    0  904 -267.99836 -259.97378  2.99%     - 1491s
     0     0 -259.97378    0  902 -267.99836 -259.97378  2.99%     - 1507s
     0     0 -259.97378    0  905 -267.99836 -259.97378  2.99%     - 1521s
     0     0 -259.97378    0  911 -267.99836 -259.97378  2.99%     - 1539s
     0     0 -259.97378    0  911 -267.99836 -259.97378  2.99%     - 1552s
     0     0 -259.97378    0  858 -267.99836 -259.97378  2.99%     - 1611s
     0     0 -259.97378    0  857 -267.99836 -259.97378  2.99%     - 1632s
     0     2 -259.97497    0  857 -267.99836 -259.97497  2.99%     - 1758s
     1     3 -260.01331    1  861 -267.99836 -259.97619  2.99%   823 1762s
     2     4 -260.05560    2  852 -267.99836 -259.97619  2.99%   494 1766s
     4     6 -260.05579    4  885 -267.99836 -259.97619  2.99%   269 1774s
     5     5     cutoff    4      -267.99836 -259.97619  2.99%   289 1781s
     6     6 -260.07471    5 1281 -267.99836 -259.97619  2.99%   266 1817s
     7     7 -261.47057    6  765 -267.99836 -259.97619  2.99%   267 1821s
     9     9 -262.48601    8  741 -267.99836 -259.97619  2.99%   226 1825s
    12    12 -264.51687   10  491 -267.99836 -259.97619  2.99%   212 1834s
    13    13 -265.27845   10  533 -267.99836 -259.97619  2.99%   231 1840s
    15    15 -266.64445   12  185 -267.99836 -259.97619  2.99%   218 1846s
    18    16 -267.49064   14  139 -267.99836 -259.97619  2.99%   203 1852s
    21    13     cutoff   15      -267.99836 -259.97619  2.99%   195 1855s
    22    12     cutoff    1      -267.99836 -260.05616  2.96%   215 1861s
    24    10     cutoff    6      -267.99836 -260.09239  2.95%   251 1870s
    25     9     cutoff    3      -267.99836 -260.09239  2.95%   288 1878s
    26     8     cutoff    2      -267.99836 -261.47057  2.44%   294 1884s
    27     9 -266.54774    9  307 -267.99836 -261.47057  2.44%   301 1892s
    29     9     cutoff   11      -267.99836 -261.47057  2.44%   286 1895s
    34     6     cutoff    7      -267.99836 -262.48601  2.06%   264 1902s
    35     7 -263.50144    9  671 -267.99836 -262.48601  2.06%   268 1905s
    39    11 -267.56317   13  480 -267.99836 -262.48601  2.06%   256 1914s
    40    10     cutoff   14      -267.99836 -262.48601  2.06%   252 1915s
    42    10 -267.30931   13  510 -267.99836 -262.48601  2.06%   251 1920s
    46     6     cutoff    9      -267.99836 -263.50144  1.68%   245 1925s
    48     4     cutoff   10      -267.99836 -264.56958  1.28%   257 1932s
    50     4 -265.53231   11  481 -267.99836 -265.27973  1.01%   255 1937s
    51     5 -265.96749   12  199 -267.99836 -265.27973  1.01%   253 1940s
    54     8 -266.98292   15  153 -267.99836 -265.27973  1.01%   242 1945s
    58     4     cutoff   14      -267.99836 -265.27973  1.01%   234 1950s

Cutting planes:
  Gomory: 3
  Zero half: 178

Explored 63 nodes (63309 simplex iterations) in 1955.77 seconds
Thread count was 1 (of 80 available processors)

Solution count 4: -267.998 -272.06 -275.693 -14587.6 

Optimal solution found (tolerance 1.00e-04)
Best objective -2.679983579874e+02, best bound -2.679983579874e+02, gap 0.0000%
